db/data/218527806124801559929634325051502129512.z3.out
sat
-------------------
184.342319853
